30 61
29
11 5 12 45
11 4 19 35
10 19 20 0
10 7 9 25
9 16 21 19
9 9 0 7
8 5 1 16
7 25 9 0
7 13 12 32
7 12 23 39
7 7 2 0
7 5 5 32
6 24 6 37
6 18 0 42
6 11 12 50
6 10 24 51
6 5 18 56
5 21 0 21
4 23 16 0
4 10 5 22
4 2 19 41
4 2 19 43
4 1 0 60
3 6 18 50
3 5 21 51
2 12 19 23
2 7 0 0
2 1 7 21
1 4 20 19

301
True
NOT_OPTIMAL